(declare-const |y':33:41:44| Int)
(declare-const havoc Int)
(declare-const |x':32:40:43| Int)
(declare-const |K:38:39:42| Int)
(declare-const |havoc:2| Int)
(assert (and (= (+ (- |havoc:2|) havoc) 0) (<= (- havoc) 0)
               (or (not (and (<= (- |K:38:39:42|) 0) (<= |K:38:39:42| 0)))
                     (= (+ |x':32:40:43| |K:38:39:42| (- havoc)) 0))
               (or (not (<= (+ (- |K:38:39:42|) 1) 0))
                     (= (+ (* 2 |x':32:40:43|) (* 2 |K:38:39:42|)
                             (- |havoc:2|) (- havoc)) 0))
               (or (not (and (<= (- |K:38:39:42|) 0) (<= |K:38:39:42| 0)))
                     (= (+ |y':33:41:44| |K:38:39:42| (- |havoc:2|)) 0))
               (or (not (<= (+ (- |K:38:39:42|) 1) 0))
                     (= (+ (* 2 |y':33:41:44|) (* 2 |K:38:39:42|)
                             (- |havoc:2|) (- havoc)) 0))
               (or (and (= |K:38:39:42| 0)
                          (= (+ (- |y':33:41:44|) |havoc:2|) 0)
                          (= (+ (- |x':32:40:43|) havoc) 0))
                     (and (<= (+ (- |K:38:39:42|) 1) 0)
                            (= (+ |havoc:2| (- havoc)) 0)
                            (<= (+ (- havoc) 1) 0)
                            (= (+ (- |y':33:41:44|) |x':32:40:43|) 0)
                            (<= (- |y':33:41:44|) 0)))
               (<= (- |K:38:39:42|) 0) (<= (- |y':33:41:44|) 0)
               (<= (- |x':32:40:43|) 0)
               (= (+ |y':33:41:44| (- |x':32:40:43|)) 0) (<= |x':32:40:43| 0)
               (not (<= (- |y':33:41:44|) 0))))
(check-sat)
